231152 12710.2
20914.1 197777
2378.65 230551
23977.5 194981
154465 85878.3
24838.1 194640
178617 66184.3
217745 29509.5
206644 36332.8
203724 39887.2
17975.4 202696
188609 54139.8
165024 78499.2
184099 57785.8
145879 96057.1
20267.8 201802
128329 99526.9
38092.9 184235
187599 54358.6
149226 93333.5
31893.9 191179
97613.7 130635
198791 47391.2
76087.8 153504
178287 66206.5
85576.5 144667
15884.1 215070
94399.9 143519
9352.51 218964
97832.4 129380
52352.7 171138
40398.4 183138
188241 54312
17920.1 215064
41001.7 182683
76379.3 151402
47462.2 177646
31771.8 191992
37633.7 189455
31771.8 191992
118862 116479
61789.5 164782
188786 53900.7
164253 82057.2
5922.96 229714
8417.91 223202
113756 121443
127255 99836.8
122152 113149
42464.1 182414
7124.48 223522
133029 97715.9
219448 25791.9
128329 99526.9
177648 68776.3
67787.4 161208
46791.4 181573
75990.7 159203
153991 91034.8
